ILAng/asmpt-ila.smt2/AES/STORE/asmpt-ila.smt2
(define-fun |cond.ILA.aes_address| ((|__START__| (_ BitVec 1))) Bool (not (= |__START__| #b0)))
(define-fun |value.ILA.aes_address| ((|__ILA_SO_aes_address| (_ BitVec 16)) (|RTL__DOT__aes_reg_opaddr_i__DOT__reg_out| (_ BitVec 16))) (_ BitVec 1) (ite (= |__ILA_SO_aes_address| |RTL__DOT__aes_reg_opaddr_i__DOT__reg_out|) #b1 #b0))
(define-fun |cond.ILA.aes_counter| ((|__START__| (_ BitVec 1))) Bool (not (= |__START__| #b0)))
(define-fun |value.ILA.aes_counter| ((|__ILA_SO_aes_counter| (_ BitVec 128)) (|RTL__DOT__aes_reg_ctr_i__DOT__reg_out| (_ BitVec 128))) (_ BitVec 1) (ite (= |__ILA_SO_aes_counter| |RTL__DOT__aes_reg_ctr_i__DOT__reg_out|) #b1 #b0))
(define-fun |cond.ILA.aes_key| ((|__START__| (_ BitVec 1))) Bool (not (= |__START__| #b0)))
(define-fun |value.ILA.aes_key| ((|__ILA_SO_aes_key| (_ BitVec 128)) (|RTL__DOT__aes_reg_key0_i__DOT__reg_out| (_ BitVec 128))) (_ BitVec 1) (ite (= |__ILA_SO_aes_key| |RTL__DOT__aes_reg_key0_i__DOT__reg_out|) #b1 #b0))
(define-fun |cond.ILA.aes_length| ((|__START__| (_ BitVec 1))) Bool (not (= |__START__| #b0)))
(define-fun |value.ILA.aes_length| ((|__ILA_SO_aes_length| (_ BitVec 16)) (|RTL__DOT__aes_reg_oplen_i__DOT__reg_out| (_ BitVec 16))) (_ BitVec 1) (ite (= |__ILA_SO_aes_length| |RTL__DOT__aes_reg_oplen_i__DOT__reg_out|) #b1 #b0))
(define-fun |cond.ILA.aes_status| ((|__START__| (_ BitVec 1))) Bool (not (= |__START__| #b0)))
(define-fun |value.ILA.aes_status| ((|__ILA_SO_aes_status| (_ BitVec 2)) (|RTL__DOT__aes_reg_state| (_ BitVec 2))) (_ BitVec 1) (ite (= |__ILA_SO_aes_status| |RTL__DOT__aes_reg_state|) #b1 #b0))
(define-fun |cond.ILA.blk_cnt| ((|__START__| (_ BitVec 1))) Bool (not (= |__START__| #b0)))
(define-fun |value.ILA.blk_cnt| ((|__ILA_SO_blk_cnt| (_ BitVec 16)) (|RTL__DOT__block_counter| (_ BitVec 16))) (_ BitVec 1) (ite (= |__ILA_SO_blk_cnt| |RTL__DOT__block_counter|) #b1 #b0))
(define-fun |cond.ILA.byte_cnt| ((|__START__| (_ BitVec 1))) Bool (not (= |__START__| #b0)))
(define-fun |value.ILA.byte_cnt| ((|__ILA_SO_byte_cnt| (_ BitVec 4)) (|RTL__DOT__byte_counter| (_ BitVec 4))) (_ BitVec 1) (ite (= |__ILA_SO_byte_cnt| |RTL__DOT__byte_counter|) #b1 #b0))
(define-fun |cond.ILA.enc_data| ((|__START__| (_ BitVec 1))) Bool (not (= |__START__| #b0)))
(define-fun |value.ILA.enc_data| ((|__ILA_SO_enc_data| (_ BitVec 128)) (|RTL__DOT__encrypted_data_buf| (_ BitVec 128))) (_ BitVec 1) (ite (= |__ILA_SO_enc_data| |RTL__DOT__encrypted_data_buf|) #b1 #b0))
(define-fun |cond.ILA.outdata| ((|__START__| (_ BitVec 1))) Bool (not (= |__START__| #b0)))
(define-fun |value.ILA.outdata| ((|__ILA_SO_outdata| (_ BitVec 8)) (|RTL__DOT__data_out_reg| (_ BitVec 8))) (_ BitVec 1) (ite (= |__ILA_SO_outdata| |RTL__DOT__data_out_reg|) #b1 #b0))
(define-fun |cond.ILA.rd_data| ((|__START__| (_ BitVec 1))) Bool (not (= |__START__| #b0)))
(define-fun |value.ILA.rd_data| ((|__ILA_SO_rd_data| (_ BitVec 128)) (|RTL__DOT__mem_data_buf| (_ BitVec 128))) (_ BitVec 1) (ite (= |__ILA_SO_rd_data| |RTL__DOT__mem_data_buf|) #b1 #b0))
(define-fun |cond.__auxvar2__recorder| ((|__START__| (_ BitVec 1)) (|__STARTED__| (_ BitVec 1)) (|__auxvar2__recorder_sn_condmet| (_ BitVec 1)) (|__CYCLE_CNT__| (_ BitVec 6))) Bool (and (and (or (not (= |__START__| #b0)) (not (= |__STARTED__| #b0))) (not (not (= |__auxvar2__recorder_sn_condmet| #b0)))) (= |__CYCLE_CNT__| #b000000)))
(define-fun |value.__auxvar2__recorder| ((|RTL__DOT__xram_addr| (_ BitVec 16))) (_ BitVec 16) |RTL__DOT__xram_addr|)
(define-fun |cond.__auxvar3__recorder| ((|__START__| (_ BitVec 1)) (|__STARTED__| (_ BitVec 1)) (|__auxvar3__recorder_sn_condmet| (_ BitVec 1)) (|RTL__DOT__xram_ack| (_ BitVec 1))) Bool (and (and (or (not (= |__START__| #b0)) (not (= |__STARTED__| #b0))) (not (not (= |__auxvar3__recorder_sn_condmet| #b0)))) (not (= |RTL__DOT__xram_ack| #b0))))
(define-fun |value.__auxvar3__recorder| ((|RTL__DOT__xram_data_in| (_ BitVec 8))) (_ BitVec 8) |RTL__DOT__xram_data_in|)
(define-fun |cond.__auxvar4__recorder| ((|__START__| (_ BitVec 1)) (|__STARTED__| (_ BitVec 1)) (|__auxvar4__recorder_sn_condmet| (_ BitVec 1)) (|__CYCLE_CNT__| (_ BitVec 6))) Bool (and (and (or (not (= |__START__| #b0)) (not (= |__STARTED__| #b0))) (not (not (= |__auxvar4__recorder_sn_condmet| #b0)))) (= |__CYCLE_CNT__| #b000000)))
(define-fun |value.__auxvar4__recorder| ((|RTL__DOT__xram_wr| (_ BitVec 1)) (|RTL__DOT__xram_stb| (_ BitVec 1))) (_ BitVec 1) (bvand (bvnot |RTL__DOT__xram_wr|) |RTL__DOT__xram_stb|))
(define-fun |cond.__auxvar5__recorder| ((|__START__| (_ BitVec 1)) (|__STARTED__| (_ BitVec 1)) (|__auxvar5__recorder_sn_condmet| (_ BitVec 1)) (|__CYCLE_CNT__| (_ BitVec 6))) Bool (and (and (or (not (= |__START__| #b0)) (not (= |__STARTED__| #b0))) (not (not (= |__auxvar5__recorder_sn_condmet| #b0)))) (= |__CYCLE_CNT__| #b000000)))
(define-fun |value.__auxvar5__recorder| ((|RTL__DOT__xram_addr| (_ BitVec 16))) (_ BitVec 16) |RTL__DOT__xram_addr|)
(define-fun |cond.__auxvar6__recorder| ((|__START__| (_ BitVec 1)) (|__STARTED__| (_ BitVec 1)) (|__auxvar6__recorder_sn_condmet| (_ BitVec 1)) (|__CYCLE_CNT__| (_ BitVec 6))) Bool (and (and (or (not (= |__START__| #b0)) (not (= |__STARTED__| #b0))) (not (not (= |__auxvar6__recorder_sn_condmet| #b0)))) (= |__CYCLE_CNT__| #b000000)))
(define-fun |value.__auxvar6__recorder| ((|RTL__DOT__xram_data_out| (_ BitVec 8))) (_ BitVec 8) |RTL__DOT__xram_data_out|)
(define-fun |cond.__auxvar7__recorder| ((|__START__| (_ BitVec 1)) (|__STARTED__| (_ BitVec 1)) (|__auxvar7__recorder_sn_condmet| (_ BitVec 1)) (|__CYCLE_CNT__| (_ BitVec 6))) Bool (and (and (or (not (= |__START__| #b0)) (not (= |__STARTED__| #b0))) (not (not (= |__auxvar7__recorder_sn_condmet| #b0)))) (= |__CYCLE_CNT__| #b000000)))
(define-fun |value.__auxvar7__recorder| ((|RTL__DOT__xram_wr| (_ BitVec 1)) (|RTL__DOT__xram_stb| (_ BitVec 1))) (_ BitVec 1) (bvand |RTL__DOT__xram_wr| |RTL__DOT__xram_stb|))
